benchmarks/INST_36x36/15/inst36x36_15_7.txt
6
1
-1	-1	-1	-1	25	18	-1	-1	-1	-1	-1	-1	28	-1	-1	9	-1	23	-1	-1	-1	-1	-1	-1	-1	-1	-1	-1	-1	-1	-1	-1	-1	-1	-1	-1
-1	-1	-1	-1	-1	-1	-1	-1	-1	-1	-1	-1	5	-1	-1	-1	-1	-1	-1	-1	-1	-1	17	-1	-1	-1	-1	-1	-1	-1	-1	-1	3	18	-1	-1
-1	-1	-1	-1	-1	2	-1	-1	-1	-1	4	-1	-1	-1	-1	-1	-1	-1	-1	19	-1	27	22	-1	34	-1	-1	-1	-1	31	-1	-1	20	17	-1	-1
-1	-1	14	10	-1	19	-1	-1	-1	-1	-1	-1	-1	-1	-1	8	-1	-1	-1	-1	-1	16	-1	-1	-1	-1	-1	28	-1	-1	-1	-1	-1	-1	-1	6
-1	-1	-1	-1	-1	1	-1	-1	-1	-1	-1	-1	14	-1	-1	-1	-1	-1	-1	-1	7	-1	-1	-1	24	-1	4	-1	-1	-1	-1	-1	-1	-1	-1	34
11	-1	15	-1	-1	26	-1	-1	-1	-1	-1	-1	-1	-1	-1	-1	-1	-1	-1	-1	18	13	-1	-1	-1	-1	-1	-1	23	-1	-1	-1	-1	27	-1	-1
13	-1	-1	-1	-1	33	-1	-1	-1	-1	-1	-1	-1	4	-1	-1	-1	-1	-1	-1	-1	-1	-1	-1	-1	-1	-1	-1	-1	-1	-1	-1	-1	-1	-1	-1
-1	-1	-1	-1	-1	-1	-1	-1	-1	-1	-1	-1	29	-1	-1	-1	-1	-1	-1	-1	-1	5	-1	-1	-1	-1	-1	-1	-1	-1	-1	15	-1	-1	-1	-1
15	-1	-1	-1	-1	-1	-1	-1	-1	-1	-1	-1	-1	-1	-1	-1	-1	-1	-1	-1	-1	-1	-1	-1	-1	-1	-1	-1	-1	35	-1	-1	-1	-1	14	-1
-1	17	-1	-1	-1	-1	9	-1	-1	3	-1	-1	-1	35	28	-1	8	-1	-1	-1	34	-1	-1	-1	30	-1	-1	-1	-1	-1	21	-1	-1	-1	-1	-1
25	-1	-1	-1	-1	-1	29	-1	-1	-1	-1	-1	-1	-1	-1	-1	-1	-1	-1	-1	-1	30	-1	-1	-1	-1	-1	-1	-1	-1	-1	-1	-1	-1	-1	-1
5	-1	-1	14	-1	-1	-1	-1	-1	-1	-1	-1	-1	-1	-1	-1	27	-1	-1	-1	-1	-1	35	-1	-1	-1	23	1	-1	3	4	-1	-1	-1	-1	-1
-1	-1	-1	-1	23	-1	-1	-1	-1	-1	-1	-1	27	-1	9	-1	-1	-1	-1	-1	-1	-1	-1	-1	-1	-1	-1	-1	-1	-1	-1	-1	29	-1	-1	-1
-1	-1	-1	-1	-1	21	-1	14	-1	-1	-1	9	-1	-1	-1	-1	-1	6	-1	-1	-1	-1	-1	-1	-1	-1	-1	19	-1	-1	-1	28	4	-1	-1	-1
-1	-1	-1	-1	30	-1	2	-1	-1	-1	22	27	-1	-1	-1	-1	-1	-1	-1	-1	-1	-1	-1	-1	14	-1	-1	-1	-1	-1	-1	-1	-1	36	-1	18
-1	25	-1	-1	-1	-1	-1	24	-1	-1	8	-1	-1	-1	-1	32	-1	-1	-1	-1	28	-1	34	-1	-1	-1	-1	-1	-1	-1	-1	-1	13	-1	-1	-1
-1	-1	-1	-1	-1	-1	-1	-1	-1	-1	-1	-1	-1	-1	-1	-1	2	-1	-1	-1	-1	-1	-1	-1	-1	-1	-1	-1	-1	-1	34	25	-1	-1	26	-1
-1	-1	-1	-1	14	-1	-1	-1	-1	19	-1	-1	-1	-1	-1	-1	-1	-1	-1	-1	27	-1	-1	-1	-1	-1	-1	3	9	-1	-1	7	-1	16	-1	-1
-1	-1	-1	-1	-1	-1	-1	-1	-1	-1	-1	-1	-1	8	-1	-1	-1	-1	-1	-1	-1	-1	-1	11	-1	-1	-1	-1	-1	-1	-1	-1	-1	20	-1	-1
-1	-1	-1	-1	-1	-1	-1	-1	-1	8	-1	-1	-1	-1	-1	-1	-1	-1	-1	-1	-1	-1	-1	-1	25	35	36	-1	-1	-1	-1	-1	-1	-1	-1	-1
-1	-1	-1	-1	-1	-1	-1	-1	-1	-1	-1	-1	13	-1	-1	-1	12	-1	28	-1	14	-1	-1	-1	18	1	6	-1	-1	-1	-1	-1	-1	-1	-1	35
34	-1	-1	-1	-1	-1	-1	-1	-1	-1	26	-1	16	9	-1	-1	-1	-1	-1	-1	-1	-1	19	-1	-1	-1	21	-1	-1	-1	-1	-1	-1	-1	-1	10
-1	-1	-1	-1	-1	-1	-1	7	-1	30	-1	-1	-1	-1	-1	-1	-1	-1	-1	-1	-1	15	-1	-1	-1	-1	-1	-1	-1	-1	-1	-1	-1	-1	19	-1
-1	-1	-1	-1	-1	32	33	16	-1	-1	-1	-1	-1	-1	-1	-1	-1	-1	-1	-1	-1	-1	-1	-1	-1	-1	-1	-1	-1	-1	-1	-1	14	-1	-1	-1
-1	-1	-1	-1	-1	-1	-1	-1	-1	14	-1	-1	-1	-1	-1	-1	-1	-1	22	28	-1	35	-1	-1	-1	-1	-1	-1	-1	-1	-1	-1	-1	-1	-1	-1
-1	-1	-1	-1	-1	-1	-1	-1	-1	26	-1	22	-1	-1	-1	-1	21	28	-1	24	15	-1	-1	-1	-1	-1	-1	-1	-1	-1	33	-1	-1	-1	-1	-1
-1	-1	-1	-1	-1	-1	15	-1	-1	-1	27	20	32	-1	4	10	-1	-1	-1	-1	-1	-1	-1	-1	-1	-1	-1	-1	-1	2	-1	-1	-1	-1	-1	-1
17	-1	-1	-1	-1	-1	-1	19	-1	-1	-1	-1	-1	11	-1	-1	-1	-1	-1	-1	21	-1	-1	-1	-1	-1	-1	8	-1	-1	-1	1	-1	-1	-1	2
-1	-1	-1	-1	-1	-1	-1	-1	-1	-1	-1	-1	12	-1	-1	-1	-1	-1	-1	-1	29	-1	-1	17	10	-1	-1	27	-1	-1	-1	-1	-1	-1	-1	-1
-1	-1	20	-1	-1	-1	-1	-1	-1	-1	-1	-1	-1	-1	33	-1	-1	-1	-1	-1	31	-1	32	-1	-1	-1	-1	17	-1	-1	-1	-1	-1	-1	-1	22
-1	-1	-1	-1	-1	-1	-1	-1	-1	-1	-1	-1	-1	36	-1	-1	-1	-1	-1	-1	-1	-1	-1	-1	-1	-1	-1	15	21	-1	-1	-1	-1	-1	-1	-1
-1	-1	-1	-1	-1	28	-1	-1	-1	-1	-1	-1	-1	-1	-1	-1	-1	34	-1	-1	-1	-1	-1	-1	-1	-1	-1	-1	-1	-1	-1	-1	-1	-1	-1	-1
-1	-1	-1	-1	-1	-1	5	-1	-1	-1	-1	-1	-1	-1	17	-1	-1	11	-1	-1	-1	-1	-1	-1	-1	-1	-1	26	-1	-1	-1	-1	-1	-1	-1	-1
-1	-1	-1	-1	-1	-1	-1	-1	-1	-1	-1	-1	-1	-1	-1	-1	13	-1	-1	-1	-1	-1	-1	-1	-1	-1	9	-1	-1	-1	-1	18	-1	8	-1	-1
-1	-1	-1	-1	-1	-1	-1	-1	-1	-1	6	7	-1	-1	-1	-1	-1	-1	-1	-1	-1	-1	-1	-1	-1	-1	-1	-1	-1	-1	-1	-1	28	-1	-1	5
-1	-1	-1	-1	10	35	-1	-1	-1	-1	-1	12	21	-1	30	-1	-1	-1	15	-1	-1	-1	-1	-1	-1	-1	-1	-1	-1	-1	7	-1	-1	4	-1	-1
